c *********************************
c * Circuit generated by BenCGen
c *
c * RippleCarryAdder_149_149_149_InOutT
c *
c * Ports with 1 gate(s): 1
c * Ports with 2 gate(s): 746
c * Total gates: 747
c *********************************
p cnf 1045 2538
1 450 0
-1 -450 0
1 -449 0
450 -449 0
-1 -450 449 0
1 150 -452 0
-1 150 452 0
1 -150 452 0
-1 -150 -452 0
452 449 -299 0
-452 449 299 0
452 -449 299 0
-452 -449 -299 0
449 -453 0
452 -453 0
-449 -452 453 0
150 -454 0
1 -454 0
-150 -1 454 0
-453 451 0
-454 451 0
453 454 -451 0
2 151 -456 0
-2 151 456 0
2 -151 456 0
-2 -151 -456 0
456 451 -300 0
-456 451 300 0
456 -451 300 0
-456 -451 -300 0
451 -457 0
456 -457 0
-451 -456 457 0
151 -458 0
2 -458 0
-151 -2 458 0
-457 455 0
-458 455 0
457 458 -455 0
3 152 -460 0
-3 152 460 0
3 -152 460 0
-3 -152 -460 0
460 455 -301 0
-460 455 301 0
460 -455 301 0
-460 -455 -301 0
455 -461 0
460 -461 0
-455 -460 461 0
152 -462 0
3 -462 0
-152 -3 462 0
-461 459 0
-462 459 0
461 462 -459 0
4 153 -464 0
-4 153 464 0
4 -153 464 0
-4 -153 -464 0
464 459 -302 0
-464 459 302 0
464 -459 302 0
-464 -459 -302 0
459 -465 0
464 -465 0
-459 -464 465 0
153 -466 0
4 -466 0
-153 -4 466 0
-465 463 0
-466 463 0
465 466 -463 0
5 154 -468 0
-5 154 468 0
5 -154 468 0
-5 -154 -468 0
468 463 -303 0
-468 463 303 0
468 -463 303 0
-468 -463 -303 0
463 -469 0
468 -469 0
-463 -468 469 0
154 -470 0
5 -470 0
-154 -5 470 0
-469 467 0
-470 467 0
469 470 -467 0
6 155 -472 0
-6 155 472 0
6 -155 472 0
-6 -155 -472 0
472 467 -304 0
-472 467 304 0
472 -467 304 0
-472 -467 -304 0
467 -473 0
472 -473 0
-467 -472 473 0
155 -474 0
6 -474 0
-155 -6 474 0
-473 471 0
-474 471 0
473 474 -471 0
7 156 -476 0
-7 156 476 0
7 -156 476 0
-7 -156 -476 0
476 471 -305 0
-476 471 305 0
476 -471 305 0
-476 -471 -305 0
471 -477 0
476 -477 0
-471 -476 477 0
156 -478 0
7 -478 0
-156 -7 478 0
-477 475 0
-478 475 0
477 478 -475 0
8 157 -480 0
-8 157 480 0
8 -157 480 0
-8 -157 -480 0
480 475 -306 0
-480 475 306 0
480 -475 306 0
-480 -475 -306 0
475 -481 0
480 -481 0
-475 -480 481 0
157 -482 0
8 -482 0
-157 -8 482 0
-481 479 0
-482 479 0
481 482 -479 0
9 158 -484 0
-9 158 484 0
9 -158 484 0
-9 -158 -484 0
484 479 -307 0
-484 479 307 0
484 -479 307 0
-484 -479 -307 0
479 -485 0
484 -485 0
-479 -484 485 0
158 -486 0
9 -486 0
-158 -9 486 0
-485 483 0
-486 483 0
485 486 -483 0
10 159 -488 0
-10 159 488 0
10 -159 488 0
-10 -159 -488 0
488 483 -308 0
-488 483 308 0
488 -483 308 0
-488 -483 -308 0
483 -489 0
488 -489 0
-483 -488 489 0
159 -490 0
10 -490 0
-159 -10 490 0
-489 487 0
-490 487 0
489 490 -487 0
11 160 -492 0
-11 160 492 0
11 -160 492 0
-11 -160 -492 0
492 487 -309 0
-492 487 309 0
492 -487 309 0
-492 -487 -309 0
487 -493 0
492 -493 0
-487 -492 493 0
160 -494 0
11 -494 0
-160 -11 494 0
-493 491 0
-494 491 0
493 494 -491 0
12 161 -496 0
-12 161 496 0
12 -161 496 0
-12 -161 -496 0
496 491 -310 0
-496 491 310 0
496 -491 310 0
-496 -491 -310 0
491 -497 0
496 -497 0
-491 -496 497 0
161 -498 0
12 -498 0
-161 -12 498 0
-497 495 0
-498 495 0
497 498 -495 0
13 162 -500 0
-13 162 500 0
13 -162 500 0
-13 -162 -500 0
500 495 -311 0
-500 495 311 0
500 -495 311 0
-500 -495 -311 0
495 -501 0
500 -501 0
-495 -500 501 0
162 -502 0
13 -502 0
-162 -13 502 0
-501 499 0
-502 499 0
501 502 -499 0
14 163 -504 0
-14 163 504 0
14 -163 504 0
-14 -163 -504 0
504 499 -312 0
-504 499 312 0
504 -499 312 0
-504 -499 -312 0
499 -505 0
504 -505 0
-499 -504 505 0
163 -506 0
14 -506 0
-163 -14 506 0
-505 503 0
-506 503 0
505 506 -503 0
15 164 -508 0
-15 164 508 0
15 -164 508 0
-15 -164 -508 0
508 503 -313 0
-508 503 313 0
508 -503 313 0
-508 -503 -313 0
503 -509 0
508 -509 0
-503 -508 509 0
164 -510 0
15 -510 0
-164 -15 510 0
-509 507 0
-510 507 0
509 510 -507 0
16 165 -512 0
-16 165 512 0
16 -165 512 0
-16 -165 -512 0
512 507 -314 0
-512 507 314 0
512 -507 314 0
-512 -507 -314 0
507 -513 0
512 -513 0
-507 -512 513 0
165 -514 0
16 -514 0
-165 -16 514 0
-513 511 0
-514 511 0
513 514 -511 0
17 166 -516 0
-17 166 516 0
17 -166 516 0
-17 -166 -516 0
516 511 -315 0
-516 511 315 0
516 -511 315 0
-516 -511 -315 0
511 -517 0
516 -517 0
-511 -516 517 0
166 -518 0
17 -518 0
-166 -17 518 0
-517 515 0
-518 515 0
517 518 -515 0
18 167 -520 0
-18 167 520 0
18 -167 520 0
-18 -167 -520 0
520 515 -316 0
-520 515 316 0
520 -515 316 0
-520 -515 -316 0
515 -521 0
520 -521 0
-515 -520 521 0
167 -522 0
18 -522 0
-167 -18 522 0
-521 519 0
-522 519 0
521 522 -519 0
19 168 -524 0
-19 168 524 0
19 -168 524 0
-19 -168 -524 0
524 519 -317 0
-524 519 317 0
524 -519 317 0
-524 -519 -317 0
519 -525 0
524 -525 0
-519 -524 525 0
168 -526 0
19 -526 0
-168 -19 526 0
-525 523 0
-526 523 0
525 526 -523 0
20 169 -528 0
-20 169 528 0
20 -169 528 0
-20 -169 -528 0
528 523 -318 0
-528 523 318 0
528 -523 318 0
-528 -523 -318 0
523 -529 0
528 -529 0
-523 -528 529 0
169 -530 0
20 -530 0
-169 -20 530 0
-529 527 0
-530 527 0
529 530 -527 0
21 170 -532 0
-21 170 532 0
21 -170 532 0
-21 -170 -532 0
532 527 -319 0
-532 527 319 0
532 -527 319 0
-532 -527 -319 0
527 -533 0
532 -533 0
-527 -532 533 0
170 -534 0
21 -534 0
-170 -21 534 0
-533 531 0
-534 531 0
533 534 -531 0
22 171 -536 0
-22 171 536 0
22 -171 536 0
-22 -171 -536 0
536 531 -320 0
-536 531 320 0
536 -531 320 0
-536 -531 -320 0
531 -537 0
536 -537 0
-531 -536 537 0
171 -538 0
22 -538 0
-171 -22 538 0
-537 535 0
-538 535 0
537 538 -535 0
23 172 -540 0
-23 172 540 0
23 -172 540 0
-23 -172 -540 0
540 535 -321 0
-540 535 321 0
540 -535 321 0
-540 -535 -321 0
535 -541 0
540 -541 0
-535 -540 541 0
172 -542 0
23 -542 0
-172 -23 542 0
-541 539 0
-542 539 0
541 542 -539 0
24 173 -544 0
-24 173 544 0
24 -173 544 0
-24 -173 -544 0
544 539 -322 0
-544 539 322 0
544 -539 322 0
-544 -539 -322 0
539 -545 0
544 -545 0
-539 -544 545 0
173 -546 0
24 -546 0
-173 -24 546 0
-545 543 0
-546 543 0
545 546 -543 0
25 174 -548 0
-25 174 548 0
25 -174 548 0
-25 -174 -548 0
548 543 -323 0
-548 543 323 0
548 -543 323 0
-548 -543 -323 0
543 -549 0
548 -549 0
-543 -548 549 0
174 -550 0
25 -550 0
-174 -25 550 0
-549 547 0
-550 547 0
549 550 -547 0
26 175 -552 0
-26 175 552 0
26 -175 552 0
-26 -175 -552 0
552 547 -324 0
-552 547 324 0
552 -547 324 0
-552 -547 -324 0
547 -553 0
552 -553 0
-547 -552 553 0
175 -554 0
26 -554 0
-175 -26 554 0
-553 551 0
-554 551 0
553 554 -551 0
27 176 -556 0
-27 176 556 0
27 -176 556 0
-27 -176 -556 0
556 551 -325 0
-556 551 325 0
556 -551 325 0
-556 -551 -325 0
551 -557 0
556 -557 0
-551 -556 557 0
176 -558 0
27 -558 0
-176 -27 558 0
-557 555 0
-558 555 0
557 558 -555 0
28 177 -560 0
-28 177 560 0
28 -177 560 0
-28 -177 -560 0
560 555 -326 0
-560 555 326 0
560 -555 326 0
-560 -555 -326 0
555 -561 0
560 -561 0
-555 -560 561 0
177 -562 0
28 -562 0
-177 -28 562 0
-561 559 0
-562 559 0
561 562 -559 0
29 178 -564 0
-29 178 564 0
29 -178 564 0
-29 -178 -564 0
564 559 -327 0
-564 559 327 0
564 -559 327 0
-564 -559 -327 0
559 -565 0
564 -565 0
-559 -564 565 0
178 -566 0
29 -566 0
-178 -29 566 0
-565 563 0
-566 563 0
565 566 -563 0
30 179 -568 0
-30 179 568 0
30 -179 568 0
-30 -179 -568 0
568 563 -328 0
-568 563 328 0
568 -563 328 0
-568 -563 -328 0
563 -569 0
568 -569 0
-563 -568 569 0
179 -570 0
30 -570 0
-179 -30 570 0
-569 567 0
-570 567 0
569 570 -567 0
31 180 -572 0
-31 180 572 0
31 -180 572 0
-31 -180 -572 0
572 567 -329 0
-572 567 329 0
572 -567 329 0
-572 -567 -329 0
567 -573 0
572 -573 0
-567 -572 573 0
180 -574 0
31 -574 0
-180 -31 574 0
-573 571 0
-574 571 0
573 574 -571 0
32 181 -576 0
-32 181 576 0
32 -181 576 0
-32 -181 -576 0
576 571 -330 0
-576 571 330 0
576 -571 330 0
-576 -571 -330 0
571 -577 0
576 -577 0
-571 -576 577 0
181 -578 0
32 -578 0
-181 -32 578 0
-577 575 0
-578 575 0
577 578 -575 0
33 182 -580 0
-33 182 580 0
33 -182 580 0
-33 -182 -580 0
580 575 -331 0
-580 575 331 0
580 -575 331 0
-580 -575 -331 0
575 -581 0
580 -581 0
-575 -580 581 0
182 -582 0
33 -582 0
-182 -33 582 0
-581 579 0
-582 579 0
581 582 -579 0
34 183 -584 0
-34 183 584 0
34 -183 584 0
-34 -183 -584 0
584 579 -332 0
-584 579 332 0
584 -579 332 0
-584 -579 -332 0
579 -585 0
584 -585 0
-579 -584 585 0
183 -586 0
34 -586 0
-183 -34 586 0
-585 583 0
-586 583 0
585 586 -583 0
35 184 -588 0
-35 184 588 0
35 -184 588 0
-35 -184 -588 0
588 583 -333 0
-588 583 333 0
588 -583 333 0
-588 -583 -333 0
583 -589 0
588 -589 0
-583 -588 589 0
184 -590 0
35 -590 0
-184 -35 590 0
-589 587 0
-590 587 0
589 590 -587 0
36 185 -592 0
-36 185 592 0
36 -185 592 0
-36 -185 -592 0
592 587 -334 0
-592 587 334 0
592 -587 334 0
-592 -587 -334 0
587 -593 0
592 -593 0
-587 -592 593 0
185 -594 0
36 -594 0
-185 -36 594 0
-593 591 0
-594 591 0
593 594 -591 0
37 186 -596 0
-37 186 596 0
37 -186 596 0
-37 -186 -596 0
596 591 -335 0
-596 591 335 0
596 -591 335 0
-596 -591 -335 0
591 -597 0
596 -597 0
-591 -596 597 0
186 -598 0
37 -598 0
-186 -37 598 0
-597 595 0
-598 595 0
597 598 -595 0
38 187 -600 0
-38 187 600 0
38 -187 600 0
-38 -187 -600 0
600 595 -336 0
-600 595 336 0
600 -595 336 0
-600 -595 -336 0
595 -601 0
600 -601 0
-595 -600 601 0
187 -602 0
38 -602 0
-187 -38 602 0
-601 599 0
-602 599 0
601 602 -599 0
39 188 -604 0
-39 188 604 0
39 -188 604 0
-39 -188 -604 0
604 599 -337 0
-604 599 337 0
604 -599 337 0
-604 -599 -337 0
599 -605 0
604 -605 0
-599 -604 605 0
188 -606 0
39 -606 0
-188 -39 606 0
-605 603 0
-606 603 0
605 606 -603 0
40 189 -608 0
-40 189 608 0
40 -189 608 0
-40 -189 -608 0
608 603 -338 0
-608 603 338 0
608 -603 338 0
-608 -603 -338 0
603 -609 0
608 -609 0
-603 -608 609 0
189 -610 0
40 -610 0
-189 -40 610 0
-609 607 0
-610 607 0
609 610 -607 0
41 190 -612 0
-41 190 612 0
41 -190 612 0
-41 -190 -612 0
612 607 -339 0
-612 607 339 0
612 -607 339 0
-612 -607 -339 0
607 -613 0
612 -613 0
-607 -612 613 0
190 -614 0
41 -614 0
-190 -41 614 0
-613 611 0
-614 611 0
613 614 -611 0
42 191 -616 0
-42 191 616 0
42 -191 616 0
-42 -191 -616 0
616 611 -340 0
-616 611 340 0
616 -611 340 0
-616 -611 -340 0
611 -617 0
616 -617 0
-611 -616 617 0
191 -618 0
42 -618 0
-191 -42 618 0
-617 615 0
-618 615 0
617 618 -615 0
43 192 -620 0
-43 192 620 0
43 -192 620 0
-43 -192 -620 0
620 615 -341 0
-620 615 341 0
620 -615 341 0
-620 -615 -341 0
615 -621 0
620 -621 0
-615 -620 621 0
192 -622 0
43 -622 0
-192 -43 622 0
-621 619 0
-622 619 0
621 622 -619 0
44 193 -624 0
-44 193 624 0
44 -193 624 0
-44 -193 -624 0
624 619 -342 0
-624 619 342 0
624 -619 342 0
-624 -619 -342 0
619 -625 0
624 -625 0
-619 -624 625 0
193 -626 0
44 -626 0
-193 -44 626 0
-625 623 0
-626 623 0
625 626 -623 0
45 194 -628 0
-45 194 628 0
45 -194 628 0
-45 -194 -628 0
628 623 -343 0
-628 623 343 0
628 -623 343 0
-628 -623 -343 0
623 -629 0
628 -629 0
-623 -628 629 0
194 -630 0
45 -630 0
-194 -45 630 0
-629 627 0
-630 627 0
629 630 -627 0
46 195 -632 0
-46 195 632 0
46 -195 632 0
-46 -195 -632 0
632 627 -344 0
-632 627 344 0
632 -627 344 0
-632 -627 -344 0
627 -633 0
632 -633 0
-627 -632 633 0
195 -634 0
46 -634 0
-195 -46 634 0
-633 631 0
-634 631 0
633 634 -631 0
47 196 -636 0
-47 196 636 0
47 -196 636 0
-47 -196 -636 0
636 631 -345 0
-636 631 345 0
636 -631 345 0
-636 -631 -345 0
631 -637 0
636 -637 0
-631 -636 637 0
196 -638 0
47 -638 0
-196 -47 638 0
-637 635 0
-638 635 0
637 638 -635 0
48 197 -640 0
-48 197 640 0
48 -197 640 0
-48 -197 -640 0
640 635 -346 0
-640 635 346 0
640 -635 346 0
-640 -635 -346 0
635 -641 0
640 -641 0
-635 -640 641 0
197 -642 0
48 -642 0
-197 -48 642 0
-641 639 0
-642 639 0
641 642 -639 0
49 198 -644 0
-49 198 644 0
49 -198 644 0
-49 -198 -644 0
644 639 -347 0
-644 639 347 0
644 -639 347 0
-644 -639 -347 0
639 -645 0
644 -645 0
-639 -644 645 0
198 -646 0
49 -646 0
-198 -49 646 0
-645 643 0
-646 643 0
645 646 -643 0
50 199 -648 0
-50 199 648 0
50 -199 648 0
-50 -199 -648 0
648 643 -348 0
-648 643 348 0
648 -643 348 0
-648 -643 -348 0
643 -649 0
648 -649 0
-643 -648 649 0
199 -650 0
50 -650 0
-199 -50 650 0
-649 647 0
-650 647 0
649 650 -647 0
51 200 -652 0
-51 200 652 0
51 -200 652 0
-51 -200 -652 0
652 647 -349 0
-652 647 349 0
652 -647 349 0
-652 -647 -349 0
647 -653 0
652 -653 0
-647 -652 653 0
200 -654 0
51 -654 0
-200 -51 654 0
-653 651 0
-654 651 0
653 654 -651 0
52 201 -656 0
-52 201 656 0
52 -201 656 0
-52 -201 -656 0
656 651 -350 0
-656 651 350 0
656 -651 350 0
-656 -651 -350 0
651 -657 0
656 -657 0
-651 -656 657 0
201 -658 0
52 -658 0
-201 -52 658 0
-657 655 0
-658 655 0
657 658 -655 0
53 202 -660 0
-53 202 660 0
53 -202 660 0
-53 -202 -660 0
660 655 -351 0
-660 655 351 0
660 -655 351 0
-660 -655 -351 0
655 -661 0
660 -661 0
-655 -660 661 0
202 -662 0
53 -662 0
-202 -53 662 0
-661 659 0
-662 659 0
661 662 -659 0
54 203 -664 0
-54 203 664 0
54 -203 664 0
-54 -203 -664 0
664 659 -352 0
-664 659 352 0
664 -659 352 0
-664 -659 -352 0
659 -665 0
664 -665 0
-659 -664 665 0
203 -666 0
54 -666 0
-203 -54 666 0
-665 663 0
-666 663 0
665 666 -663 0
55 204 -668 0
-55 204 668 0
55 -204 668 0
-55 -204 -668 0
668 663 -353 0
-668 663 353 0
668 -663 353 0
-668 -663 -353 0
663 -669 0
668 -669 0
-663 -668 669 0
204 -670 0
55 -670 0
-204 -55 670 0
-669 667 0
-670 667 0
669 670 -667 0
56 205 -672 0
-56 205 672 0
56 -205 672 0
-56 -205 -672 0
672 667 -354 0
-672 667 354 0
672 -667 354 0
-672 -667 -354 0
667 -673 0
672 -673 0
-667 -672 673 0
205 -674 0
56 -674 0
-205 -56 674 0
-673 671 0
-674 671 0
673 674 -671 0
57 206 -676 0
-57 206 676 0
57 -206 676 0
-57 -206 -676 0
676 671 -355 0
-676 671 355 0
676 -671 355 0
-676 -671 -355 0
671 -677 0
676 -677 0
-671 -676 677 0
206 -678 0
57 -678 0
-206 -57 678 0
-677 675 0
-678 675 0
677 678 -675 0
58 207 -680 0
-58 207 680 0
58 -207 680 0
-58 -207 -680 0
680 675 -356 0
-680 675 356 0
680 -675 356 0
-680 -675 -356 0
675 -681 0
680 -681 0
-675 -680 681 0
207 -682 0
58 -682 0
-207 -58 682 0
-681 679 0
-682 679 0
681 682 -679 0
59 208 -684 0
-59 208 684 0
59 -208 684 0
-59 -208 -684 0
684 679 -357 0
-684 679 357 0
684 -679 357 0
-684 -679 -357 0
679 -685 0
684 -685 0
-679 -684 685 0
208 -686 0
59 -686 0
-208 -59 686 0
-685 683 0
-686 683 0
685 686 -683 0
60 209 -688 0
-60 209 688 0
60 -209 688 0
-60 -209 -688 0
688 683 -358 0
-688 683 358 0
688 -683 358 0
-688 -683 -358 0
683 -689 0
688 -689 0
-683 -688 689 0
209 -690 0
60 -690 0
-209 -60 690 0
-689 687 0
-690 687 0
689 690 -687 0
61 210 -692 0
-61 210 692 0
61 -210 692 0
-61 -210 -692 0
692 687 -359 0
-692 687 359 0
692 -687 359 0
-692 -687 -359 0
687 -693 0
692 -693 0
-687 -692 693 0
210 -694 0
61 -694 0
-210 -61 694 0
-693 691 0
-694 691 0
693 694 -691 0
62 211 -696 0
-62 211 696 0
62 -211 696 0
-62 -211 -696 0
696 691 -360 0
-696 691 360 0
696 -691 360 0
-696 -691 -360 0
691 -697 0
696 -697 0
-691 -696 697 0
211 -698 0
62 -698 0
-211 -62 698 0
-697 695 0
-698 695 0
697 698 -695 0
63 212 -700 0
-63 212 700 0
63 -212 700 0
-63 -212 -700 0
700 695 -361 0
-700 695 361 0
700 -695 361 0
-700 -695 -361 0
695 -701 0
700 -701 0
-695 -700 701 0
212 -702 0
63 -702 0
-212 -63 702 0
-701 699 0
-702 699 0
701 702 -699 0
64 213 -704 0
-64 213 704 0
64 -213 704 0
-64 -213 -704 0
704 699 -362 0
-704 699 362 0
704 -699 362 0
-704 -699 -362 0
699 -705 0
704 -705 0
-699 -704 705 0
213 -706 0
64 -706 0
-213 -64 706 0
-705 703 0
-706 703 0
705 706 -703 0
65 214 -708 0
-65 214 708 0
65 -214 708 0
-65 -214 -708 0
708 703 -363 0
-708 703 363 0
708 -703 363 0
-708 -703 -363 0
703 -709 0
708 -709 0
-703 -708 709 0
214 -710 0
65 -710 0
-214 -65 710 0
-709 707 0
-710 707 0
709 710 -707 0
66 215 -712 0
-66 215 712 0
66 -215 712 0
-66 -215 -712 0
712 707 -364 0
-712 707 364 0
712 -707 364 0
-712 -707 -364 0
707 -713 0
712 -713 0
-707 -712 713 0
215 -714 0
66 -714 0
-215 -66 714 0
-713 711 0
-714 711 0
713 714 -711 0
67 216 -716 0
-67 216 716 0
67 -216 716 0
-67 -216 -716 0
716 711 -365 0
-716 711 365 0
716 -711 365 0
-716 -711 -365 0
711 -717 0
716 -717 0
-711 -716 717 0
216 -718 0
67 -718 0
-216 -67 718 0
-717 715 0
-718 715 0
717 718 -715 0
68 217 -720 0
-68 217 720 0
68 -217 720 0
-68 -217 -720 0
720 715 -366 0
-720 715 366 0
720 -715 366 0
-720 -715 -366 0
715 -721 0
720 -721 0
-715 -720 721 0
217 -722 0
68 -722 0
-217 -68 722 0
-721 719 0
-722 719 0
721 722 -719 0
69 218 -724 0
-69 218 724 0
69 -218 724 0
-69 -218 -724 0
724 719 -367 0
-724 719 367 0
724 -719 367 0
-724 -719 -367 0
719 -725 0
724 -725 0
-719 -724 725 0
218 -726 0
69 -726 0
-218 -69 726 0
-725 723 0
-726 723 0
725 726 -723 0
70 219 -728 0
-70 219 728 0
70 -219 728 0
-70 -219 -728 0
728 723 -368 0
-728 723 368 0
728 -723 368 0
-728 -723 -368 0
723 -729 0
728 -729 0
-723 -728 729 0
219 -730 0
70 -730 0
-219 -70 730 0
-729 727 0
-730 727 0
729 730 -727 0
71 220 -732 0
-71 220 732 0
71 -220 732 0
-71 -220 -732 0
732 727 -369 0
-732 727 369 0
732 -727 369 0
-732 -727 -369 0
727 -733 0
732 -733 0
-727 -732 733 0
220 -734 0
71 -734 0
-220 -71 734 0
-733 731 0
-734 731 0
733 734 -731 0
72 221 -736 0
-72 221 736 0
72 -221 736 0
-72 -221 -736 0
736 731 -370 0
-736 731 370 0
736 -731 370 0
-736 -731 -370 0
731 -737 0
736 -737 0
-731 -736 737 0
221 -738 0
72 -738 0
-221 -72 738 0
-737 735 0
-738 735 0
737 738 -735 0
73 222 -740 0
-73 222 740 0
73 -222 740 0
-73 -222 -740 0
740 735 -371 0
-740 735 371 0
740 -735 371 0
-740 -735 -371 0
735 -741 0
740 -741 0
-735 -740 741 0
222 -742 0
73 -742 0
-222 -73 742 0
-741 739 0
-742 739 0
741 742 -739 0
74 223 -744 0
-74 223 744 0
74 -223 744 0
-74 -223 -744 0
744 739 -372 0
-744 739 372 0
744 -739 372 0
-744 -739 -372 0
739 -745 0
744 -745 0
-739 -744 745 0
223 -746 0
74 -746 0
-223 -74 746 0
-745 743 0
-746 743 0
745 746 -743 0
75 224 -748 0
-75 224 748 0
75 -224 748 0
-75 -224 -748 0
748 743 -373 0
-748 743 373 0
748 -743 373 0
-748 -743 -373 0
743 -749 0
748 -749 0
-743 -748 749 0
224 -750 0
75 -750 0
-224 -75 750 0
-749 747 0
-750 747 0
749 750 -747 0
76 225 -752 0
-76 225 752 0
76 -225 752 0
-76 -225 -752 0
752 747 -374 0
-752 747 374 0
752 -747 374 0
-752 -747 -374 0
747 -753 0
752 -753 0
-747 -752 753 0
225 -754 0
76 -754 0
-225 -76 754 0
-753 751 0
-754 751 0
753 754 -751 0
77 226 -756 0
-77 226 756 0
77 -226 756 0
-77 -226 -756 0
756 751 -375 0
-756 751 375 0
756 -751 375 0
-756 -751 -375 0
751 -757 0
756 -757 0
-751 -756 757 0
226 -758 0
77 -758 0
-226 -77 758 0
-757 755 0
-758 755 0
757 758 -755 0
78 227 -760 0
-78 227 760 0
78 -227 760 0
-78 -227 -760 0
760 755 -376 0
-760 755 376 0
760 -755 376 0
-760 -755 -376 0
755 -761 0
760 -761 0
-755 -760 761 0
227 -762 0
78 -762 0
-227 -78 762 0
-761 759 0
-762 759 0
761 762 -759 0
79 228 -764 0
-79 228 764 0
79 -228 764 0
-79 -228 -764 0
764 759 -377 0
-764 759 377 0
764 -759 377 0
-764 -759 -377 0
759 -765 0
764 -765 0
-759 -764 765 0
228 -766 0
79 -766 0
-228 -79 766 0
-765 763 0
-766 763 0
765 766 -763 0
80 229 -768 0
-80 229 768 0
80 -229 768 0
-80 -229 -768 0
768 763 -378 0
-768 763 378 0
768 -763 378 0
-768 -763 -378 0
763 -769 0
768 -769 0
-763 -768 769 0
229 -770 0
80 -770 0
-229 -80 770 0
-769 767 0
-770 767 0
769 770 -767 0
81 230 -772 0
-81 230 772 0
81 -230 772 0
-81 -230 -772 0
772 767 -379 0
-772 767 379 0
772 -767 379 0
-772 -767 -379 0
767 -773 0
772 -773 0
-767 -772 773 0
230 -774 0
81 -774 0
-230 -81 774 0
-773 771 0
-774 771 0
773 774 -771 0
82 231 -776 0
-82 231 776 0
82 -231 776 0
-82 -231 -776 0
776 771 -380 0
-776 771 380 0
776 -771 380 0
-776 -771 -380 0
771 -777 0
776 -777 0
-771 -776 777 0
231 -778 0
82 -778 0
-231 -82 778 0
-777 775 0
-778 775 0
777 778 -775 0
83 232 -780 0
-83 232 780 0
83 -232 780 0
-83 -232 -780 0
780 775 -381 0
-780 775 381 0
780 -775 381 0
-780 -775 -381 0
775 -781 0
780 -781 0
-775 -780 781 0
232 -782 0
83 -782 0
-232 -83 782 0
-781 779 0
-782 779 0
781 782 -779 0
84 233 -784 0
-84 233 784 0
84 -233 784 0
-84 -233 -784 0
784 779 -382 0
-784 779 382 0
784 -779 382 0
-784 -779 -382 0
779 -785 0
784 -785 0
-779 -784 785 0
233 -786 0
84 -786 0
-233 -84 786 0
-785 783 0
-786 783 0
785 786 -783 0
85 234 -788 0
-85 234 788 0
85 -234 788 0
-85 -234 -788 0
788 783 -383 0
-788 783 383 0
788 -783 383 0
-788 -783 -383 0
783 -789 0
788 -789 0
-783 -788 789 0
234 -790 0
85 -790 0
-234 -85 790 0
-789 787 0
-790 787 0
789 790 -787 0
86 235 -792 0
-86 235 792 0
86 -235 792 0
-86 -235 -792 0
792 787 -384 0
-792 787 384 0
792 -787 384 0
-792 -787 -384 0
787 -793 0
792 -793 0
-787 -792 793 0
235 -794 0
86 -794 0
-235 -86 794 0
-793 791 0
-794 791 0
793 794 -791 0
87 236 -796 0
-87 236 796 0
87 -236 796 0
-87 -236 -796 0
796 791 -385 0
-796 791 385 0
796 -791 385 0
-796 -791 -385 0
791 -797 0
796 -797 0
-791 -796 797 0
236 -798 0
87 -798 0
-236 -87 798 0
-797 795 0
-798 795 0
797 798 -795 0
88 237 -800 0
-88 237 800 0
88 -237 800 0
-88 -237 -800 0
800 795 -386 0
-800 795 386 0
800 -795 386 0
-800 -795 -386 0
795 -801 0
800 -801 0
-795 -800 801 0
237 -802 0
88 -802 0
-237 -88 802 0
-801 799 0
-802 799 0
801 802 -799 0
89 238 -804 0
-89 238 804 0
89 -238 804 0
-89 -238 -804 0
804 799 -387 0
-804 799 387 0
804 -799 387 0
-804 -799 -387 0
799 -805 0
804 -805 0
-799 -804 805 0
238 -806 0
89 -806 0
-238 -89 806 0
-805 803 0
-806 803 0
805 806 -803 0
90 239 -808 0
-90 239 808 0
90 -239 808 0
-90 -239 -808 0
808 803 -388 0
-808 803 388 0
808 -803 388 0
-808 -803 -388 0
803 -809 0
808 -809 0
-803 -808 809 0
239 -810 0
90 -810 0
-239 -90 810 0
-809 807 0
-810 807 0
809 810 -807 0
91 240 -812 0
-91 240 812 0
91 -240 812 0
-91 -240 -812 0
812 807 -389 0
-812 807 389 0
812 -807 389 0
-812 -807 -389 0
807 -813 0
812 -813 0
-807 -812 813 0
240 -814 0
91 -814 0
-240 -91 814 0
-813 811 0
-814 811 0
813 814 -811 0
92 241 -816 0
-92 241 816 0
92 -241 816 0
-92 -241 -816 0
816 811 -390 0
-816 811 390 0
816 -811 390 0
-816 -811 -390 0
811 -817 0
816 -817 0
-811 -816 817 0
241 -818 0
92 -818 0
-241 -92 818 0
-817 815 0
-818 815 0
817 818 -815 0
93 242 -820 0
-93 242 820 0
93 -242 820 0
-93 -242 -820 0
820 815 -391 0
-820 815 391 0
820 -815 391 0
-820 -815 -391 0
815 -821 0
820 -821 0
-815 -820 821 0
242 -822 0
93 -822 0
-242 -93 822 0
-821 819 0
-822 819 0
821 822 -819 0
94 243 -824 0
-94 243 824 0
94 -243 824 0
-94 -243 -824 0
824 819 -392 0
-824 819 392 0
824 -819 392 0
-824 -819 -392 0
819 -825 0
824 -825 0
-819 -824 825 0
243 -826 0
94 -826 0
-243 -94 826 0
-825 823 0
-826 823 0
825 826 -823 0
95 244 -828 0
-95 244 828 0
95 -244 828 0
-95 -244 -828 0
828 823 -393 0
-828 823 393 0
828 -823 393 0
-828 -823 -393 0
823 -829 0
828 -829 0
-823 -828 829 0
244 -830 0
95 -830 0
-244 -95 830 0
-829 827 0
-830 827 0
829 830 -827 0
96 245 -832 0
-96 245 832 0
96 -245 832 0
-96 -245 -832 0
832 827 -394 0
-832 827 394 0
832 -827 394 0
-832 -827 -394 0
827 -833 0
832 -833 0
-827 -832 833 0
245 -834 0
96 -834 0
-245 -96 834 0
-833 831 0
-834 831 0
833 834 -831 0
97 246 -836 0
-97 246 836 0
97 -246 836 0
-97 -246 -836 0
836 831 -395 0
-836 831 395 0
836 -831 395 0
-836 -831 -395 0
831 -837 0
836 -837 0
-831 -836 837 0
246 -838 0
97 -838 0
-246 -97 838 0
-837 835 0
-838 835 0
837 838 -835 0
98 247 -840 0
-98 247 840 0
98 -247 840 0
-98 -247 -840 0
840 835 -396 0
-840 835 396 0
840 -835 396 0
-840 -835 -396 0
835 -841 0
840 -841 0
-835 -840 841 0
247 -842 0
98 -842 0
-247 -98 842 0
-841 839 0
-842 839 0
841 842 -839 0
99 248 -844 0
-99 248 844 0
99 -248 844 0
-99 -248 -844 0
844 839 -397 0
-844 839 397 0
844 -839 397 0
-844 -839 -397 0
839 -845 0
844 -845 0
-839 -844 845 0
248 -846 0
99 -846 0
-248 -99 846 0
-845 843 0
-846 843 0
845 846 -843 0
100 249 -848 0
-100 249 848 0
100 -249 848 0
-100 -249 -848 0
848 843 -398 0
-848 843 398 0
848 -843 398 0
-848 -843 -398 0
843 -849 0
848 -849 0
-843 -848 849 0
249 -850 0
100 -850 0
-249 -100 850 0
-849 847 0
-850 847 0
849 850 -847 0
101 250 -852 0
-101 250 852 0
101 -250 852 0
-101 -250 -852 0
852 847 -399 0
-852 847 399 0
852 -847 399 0
-852 -847 -399 0
847 -853 0
852 -853 0
-847 -852 853 0
250 -854 0
101 -854 0
-250 -101 854 0
-853 851 0
-854 851 0
853 854 -851 0
102 251 -856 0
-102 251 856 0
102 -251 856 0
-102 -251 -856 0
856 851 -400 0
-856 851 400 0
856 -851 400 0
-856 -851 -400 0
851 -857 0
856 -857 0
-851 -856 857 0
251 -858 0
102 -858 0
-251 -102 858 0
-857 855 0
-858 855 0
857 858 -855 0
103 252 -860 0
-103 252 860 0
103 -252 860 0
-103 -252 -860 0
860 855 -401 0
-860 855 401 0
860 -855 401 0
-860 -855 -401 0
855 -861 0
860 -861 0
-855 -860 861 0
252 -862 0
103 -862 0
-252 -103 862 0
-861 859 0
-862 859 0
861 862 -859 0
104 253 -864 0
-104 253 864 0
104 -253 864 0
-104 -253 -864 0
864 859 -402 0
-864 859 402 0
864 -859 402 0
-864 -859 -402 0
859 -865 0
864 -865 0
-859 -864 865 0
253 -866 0
104 -866 0
-253 -104 866 0
-865 863 0
-866 863 0
865 866 -863 0
105 254 -868 0
-105 254 868 0
105 -254 868 0
-105 -254 -868 0
868 863 -403 0
-868 863 403 0
868 -863 403 0
-868 -863 -403 0
863 -869 0
868 -869 0
-863 -868 869 0
254 -870 0
105 -870 0
-254 -105 870 0
-869 867 0
-870 867 0
869 870 -867 0
106 255 -872 0
-106 255 872 0
106 -255 872 0
-106 -255 -872 0
872 867 -404 0
-872 867 404 0
872 -867 404 0
-872 -867 -404 0
867 -873 0
872 -873 0
-867 -872 873 0
255 -874 0
106 -874 0
-255 -106 874 0
-873 871 0
-874 871 0
873 874 -871 0
107 256 -876 0
-107 256 876 0
107 -256 876 0
-107 -256 -876 0
876 871 -405 0
-876 871 405 0
876 -871 405 0
-876 -871 -405 0
871 -877 0
876 -877 0
-871 -876 877 0
256 -878 0
107 -878 0
-256 -107 878 0
-877 875 0
-878 875 0
877 878 -875 0
108 257 -880 0
-108 257 880 0
108 -257 880 0
-108 -257 -880 0
880 875 -406 0
-880 875 406 0
880 -875 406 0
-880 -875 -406 0
875 -881 0
880 -881 0
-875 -880 881 0
257 -882 0
108 -882 0
-257 -108 882 0
-881 879 0
-882 879 0
881 882 -879 0
109 258 -884 0
-109 258 884 0
109 -258 884 0
-109 -258 -884 0
884 879 -407 0
-884 879 407 0
884 -879 407 0
-884 -879 -407 0
879 -885 0
884 -885 0
-879 -884 885 0
258 -886 0
109 -886 0
-258 -109 886 0
-885 883 0
-886 883 0
885 886 -883 0
110 259 -888 0
-110 259 888 0
110 -259 888 0
-110 -259 -888 0
888 883 -408 0
-888 883 408 0
888 -883 408 0
-888 -883 -408 0
883 -889 0
888 -889 0
-883 -888 889 0
259 -890 0
110 -890 0
-259 -110 890 0
-889 887 0
-890 887 0
889 890 -887 0
111 260 -892 0
-111 260 892 0
111 -260 892 0
-111 -260 -892 0
892 887 -409 0
-892 887 409 0
892 -887 409 0
-892 -887 -409 0
887 -893 0
892 -893 0
-887 -892 893 0
260 -894 0
111 -894 0
-260 -111 894 0
-893 891 0
-894 891 0
893 894 -891 0
112 261 -896 0
-112 261 896 0
112 -261 896 0
-112 -261 -896 0
896 891 -410 0
-896 891 410 0
896 -891 410 0
-896 -891 -410 0
891 -897 0
896 -897 0
-891 -896 897 0
261 -898 0
112 -898 0
-261 -112 898 0
-897 895 0
-898 895 0
897 898 -895 0
113 262 -900 0
-113 262 900 0
113 -262 900 0
-113 -262 -900 0
900 895 -411 0
-900 895 411 0
900 -895 411 0
-900 -895 -411 0
895 -901 0
900 -901 0
-895 -900 901 0
262 -902 0
113 -902 0
-262 -113 902 0
-901 899 0
-902 899 0
901 902 -899 0
114 263 -904 0
-114 263 904 0
114 -263 904 0
-114 -263 -904 0
904 899 -412 0
-904 899 412 0
904 -899 412 0
-904 -899 -412 0
899 -905 0
904 -905 0
-899 -904 905 0
263 -906 0
114 -906 0
-263 -114 906 0
-905 903 0
-906 903 0
905 906 -903 0
115 264 -908 0
-115 264 908 0
115 -264 908 0
-115 -264 -908 0
908 903 -413 0
-908 903 413 0
908 -903 413 0
-908 -903 -413 0
903 -909 0
908 -909 0
-903 -908 909 0
264 -910 0
115 -910 0
-264 -115 910 0
-909 907 0
-910 907 0
909 910 -907 0
116 265 -912 0
-116 265 912 0
116 -265 912 0
-116 -265 -912 0
912 907 -414 0
-912 907 414 0
912 -907 414 0
-912 -907 -414 0
907 -913 0
912 -913 0
-907 -912 913 0
265 -914 0
116 -914 0
-265 -116 914 0
-913 911 0
-914 911 0
913 914 -911 0
117 266 -916 0
-117 266 916 0
117 -266 916 0
-117 -266 -916 0
916 911 -415 0
-916 911 415 0
916 -911 415 0
-916 -911 -415 0
911 -917 0
916 -917 0
-911 -916 917 0
266 -918 0
117 -918 0
-266 -117 918 0
-917 915 0
-918 915 0
917 918 -915 0
118 267 -920 0
-118 267 920 0
118 -267 920 0
-118 -267 -920 0
920 915 -416 0
-920 915 416 0
920 -915 416 0
-920 -915 -416 0
915 -921 0
920 -921 0
-915 -920 921 0
267 -922 0
118 -922 0
-267 -118 922 0
-921 919 0
-922 919 0
921 922 -919 0
119 268 -924 0
-119 268 924 0
119 -268 924 0
-119 -268 -924 0
924 919 -417 0
-924 919 417 0
924 -919 417 0
-924 -919 -417 0
919 -925 0
924 -925 0
-919 -924 925 0
268 -926 0
119 -926 0
-268 -119 926 0
-925 923 0
-926 923 0
925 926 -923 0
120 269 -928 0
-120 269 928 0
120 -269 928 0
-120 -269 -928 0
928 923 -418 0
-928 923 418 0
928 -923 418 0
-928 -923 -418 0
923 -929 0
928 -929 0
-923 -928 929 0
269 -930 0
120 -930 0
-269 -120 930 0
-929 927 0
-930 927 0
929 930 -927 0
121 270 -932 0
-121 270 932 0
121 -270 932 0
-121 -270 -932 0
932 927 -419 0
-932 927 419 0
932 -927 419 0
-932 -927 -419 0
927 -933 0
932 -933 0
-927 -932 933 0
270 -934 0
121 -934 0
-270 -121 934 0
-933 931 0
-934 931 0
933 934 -931 0
122 271 -936 0
-122 271 936 0
122 -271 936 0
-122 -271 -936 0
936 931 -420 0
-936 931 420 0
936 -931 420 0
-936 -931 -420 0
931 -937 0
936 -937 0
-931 -936 937 0
271 -938 0
122 -938 0
-271 -122 938 0
-937 935 0
-938 935 0
937 938 -935 0
123 272 -940 0
-123 272 940 0
123 -272 940 0
-123 -272 -940 0
940 935 -421 0
-940 935 421 0
940 -935 421 0
-940 -935 -421 0
935 -941 0
940 -941 0
-935 -940 941 0
272 -942 0
123 -942 0
-272 -123 942 0
-941 939 0
-942 939 0
941 942 -939 0
124 273 -944 0
-124 273 944 0
124 -273 944 0
-124 -273 -944 0
944 939 -422 0
-944 939 422 0
944 -939 422 0
-944 -939 -422 0
939 -945 0
944 -945 0
-939 -944 945 0
273 -946 0
124 -946 0
-273 -124 946 0
-945 943 0
-946 943 0
945 946 -943 0
125 274 -948 0
-125 274 948 0
125 -274 948 0
-125 -274 -948 0
948 943 -423 0
-948 943 423 0
948 -943 423 0
-948 -943 -423 0
943 -949 0
948 -949 0
-943 -948 949 0
274 -950 0
125 -950 0
-274 -125 950 0
-949 947 0
-950 947 0
949 950 -947 0
126 275 -952 0
-126 275 952 0
126 -275 952 0
-126 -275 -952 0
952 947 -424 0
-952 947 424 0
952 -947 424 0
-952 -947 -424 0
947 -953 0
952 -953 0
-947 -952 953 0
275 -954 0
126 -954 0
-275 -126 954 0
-953 951 0
-954 951 0
953 954 -951 0
127 276 -956 0
-127 276 956 0
127 -276 956 0
-127 -276 -956 0
956 951 -425 0
-956 951 425 0
956 -951 425 0
-956 -951 -425 0
951 -957 0
956 -957 0
-951 -956 957 0
276 -958 0
127 -958 0
-276 -127 958 0
-957 955 0
-958 955 0
957 958 -955 0
128 277 -960 0
-128 277 960 0
128 -277 960 0
-128 -277 -960 0
960 955 -426 0
-960 955 426 0
960 -955 426 0
-960 -955 -426 0
955 -961 0
960 -961 0
-955 -960 961 0
277 -962 0
128 -962 0
-277 -128 962 0
-961 959 0
-962 959 0
961 962 -959 0
129 278 -964 0
-129 278 964 0
129 -278 964 0
-129 -278 -964 0
964 959 -427 0
-964 959 427 0
964 -959 427 0
-964 -959 -427 0
959 -965 0
964 -965 0
-959 -964 965 0
278 -966 0
129 -966 0
-278 -129 966 0
-965 963 0
-966 963 0
965 966 -963 0
130 279 -968 0
-130 279 968 0
130 -279 968 0
-130 -279 -968 0
968 963 -428 0
-968 963 428 0
968 -963 428 0
-968 -963 -428 0
963 -969 0
968 -969 0
-963 -968 969 0
279 -970 0
130 -970 0
-279 -130 970 0
-969 967 0
-970 967 0
969 970 -967 0
131 280 -972 0
-131 280 972 0
131 -280 972 0
-131 -280 -972 0
972 967 -429 0
-972 967 429 0
972 -967 429 0
-972 -967 -429 0
967 -973 0
972 -973 0
-967 -972 973 0
280 -974 0
131 -974 0
-280 -131 974 0
-973 971 0
-974 971 0
973 974 -971 0
132 281 -976 0
-132 281 976 0
132 -281 976 0
-132 -281 -976 0
976 971 -430 0
-976 971 430 0
976 -971 430 0
-976 -971 -430 0
971 -977 0
976 -977 0
-971 -976 977 0
281 -978 0
132 -978 0
-281 -132 978 0
-977 975 0
-978 975 0
977 978 -975 0
133 282 -980 0
-133 282 980 0
133 -282 980 0
-133 -282 -980 0
980 975 -431 0
-980 975 431 0
980 -975 431 0
-980 -975 -431 0
975 -981 0
980 -981 0
-975 -980 981 0
282 -982 0
133 -982 0
-282 -133 982 0
-981 979 0
-982 979 0
981 982 -979 0
134 283 -984 0
-134 283 984 0
134 -283 984 0
-134 -283 -984 0
984 979 -432 0
-984 979 432 0
984 -979 432 0
-984 -979 -432 0
979 -985 0
984 -985 0
-979 -984 985 0
283 -986 0
134 -986 0
-283 -134 986 0
-985 983 0
-986 983 0
985 986 -983 0
135 284 -988 0
-135 284 988 0
135 -284 988 0
-135 -284 -988 0
988 983 -433 0
-988 983 433 0
988 -983 433 0
-988 -983 -433 0
983 -989 0
988 -989 0
-983 -988 989 0
284 -990 0
135 -990 0
-284 -135 990 0
-989 987 0
-990 987 0
989 990 -987 0
136 285 -992 0
-136 285 992 0
136 -285 992 0
-136 -285 -992 0
992 987 -434 0
-992 987 434 0
992 -987 434 0
-992 -987 -434 0
987 -993 0
992 -993 0
-987 -992 993 0
285 -994 0
136 -994 0
-285 -136 994 0
-993 991 0
-994 991 0
993 994 -991 0
137 286 -996 0
-137 286 996 0
137 -286 996 0
-137 -286 -996 0
996 991 -435 0
-996 991 435 0
996 -991 435 0
-996 -991 -435 0
991 -997 0
996 -997 0
-991 -996 997 0
286 -998 0
137 -998 0
-286 -137 998 0
-997 995 0
-998 995 0
997 998 -995 0
138 287 -1000 0
-138 287 1000 0
138 -287 1000 0
-138 -287 -1000 0
1000 995 -436 0
-1000 995 436 0
1000 -995 436 0
-1000 -995 -436 0
995 -1001 0
1000 -1001 0
-995 -1000 1001 0
287 -1002 0
138 -1002 0
-287 -138 1002 0
-1001 999 0
-1002 999 0
1001 1002 -999 0
139 288 -1004 0
-139 288 1004 0
139 -288 1004 0
-139 -288 -1004 0
1004 999 -437 0
-1004 999 437 0
1004 -999 437 0
-1004 -999 -437 0
999 -1005 0
1004 -1005 0
-999 -1004 1005 0
288 -1006 0
139 -1006 0
-288 -139 1006 0
-1005 1003 0
-1006 1003 0
1005 1006 -1003 0
140 289 -1008 0
-140 289 1008 0
140 -289 1008 0
-140 -289 -1008 0
1008 1003 -438 0
-1008 1003 438 0
1008 -1003 438 0
-1008 -1003 -438 0
1003 -1009 0
1008 -1009 0
-1003 -1008 1009 0
289 -1010 0
140 -1010 0
-289 -140 1010 0
-1009 1007 0
-1010 1007 0
1009 1010 -1007 0
141 290 -1012 0
-141 290 1012 0
141 -290 1012 0
-141 -290 -1012 0
1012 1007 -439 0
-1012 1007 439 0
1012 -1007 439 0
-1012 -1007 -439 0
1007 -1013 0
1012 -1013 0
-1007 -1012 1013 0
290 -1014 0
141 -1014 0
-290 -141 1014 0
-1013 1011 0
-1014 1011 0
1013 1014 -1011 0
142 291 -1016 0
-142 291 1016 0
142 -291 1016 0
-142 -291 -1016 0
1016 1011 -440 0
-1016 1011 440 0
1016 -1011 440 0
-1016 -1011 -440 0
1011 -1017 0
1016 -1017 0
-1011 -1016 1017 0
291 -1018 0
142 -1018 0
-291 -142 1018 0
-1017 1015 0
-1018 1015 0
1017 1018 -1015 0
143 292 -1020 0
-143 292 1020 0
143 -292 1020 0
-143 -292 -1020 0
1020 1015 -441 0
-1020 1015 441 0
1020 -1015 441 0
-1020 -1015 -441 0
1015 -1021 0
1020 -1021 0
-1015 -1020 1021 0
292 -1022 0
143 -1022 0
-292 -143 1022 0
-1021 1019 0
-1022 1019 0
1021 1022 -1019 0
144 293 -1024 0
-144 293 1024 0
144 -293 1024 0
-144 -293 -1024 0
1024 1019 -442 0
-1024 1019 442 0
1024 -1019 442 0
-1024 -1019 -442 0
1019 -1025 0
1024 -1025 0
-1019 -1024 1025 0
293 -1026 0
144 -1026 0
-293 -144 1026 0
-1025 1023 0
-1026 1023 0
1025 1026 -1023 0
145 294 -1028 0
-145 294 1028 0
145 -294 1028 0
-145 -294 -1028 0
1028 1023 -443 0
-1028 1023 443 0
1028 -1023 443 0
-1028 -1023 -443 0
1023 -1029 0
1028 -1029 0
-1023 -1028 1029 0
294 -1030 0
145 -1030 0
-294 -145 1030 0
-1029 1027 0
-1030 1027 0
1029 1030 -1027 0
146 295 -1032 0
-146 295 1032 0
146 -295 1032 0
-146 -295 -1032 0
1032 1027 -444 0
-1032 1027 444 0
1032 -1027 444 0
-1032 -1027 -444 0
1027 -1033 0
1032 -1033 0
-1027 -1032 1033 0
295 -1034 0
146 -1034 0
-295 -146 1034 0
-1033 1031 0
-1034 1031 0
1033 1034 -1031 0
147 296 -1036 0
-147 296 1036 0
147 -296 1036 0
-147 -296 -1036 0
1036 1031 -445 0
-1036 1031 445 0
1036 -1031 445 0
-1036 -1031 -445 0
1031 -1037 0
1036 -1037 0
-1031 -1036 1037 0
296 -1038 0
147 -1038 0
-296 -147 1038 0
-1037 1035 0
-1038 1035 0
1037 1038 -1035 0
148 297 -1040 0
-148 297 1040 0
148 -297 1040 0
-148 -297 -1040 0
1040 1035 -446 0
-1040 1035 446 0
1040 -1035 446 0
-1040 -1035 -446 0
1035 -1041 0
1040 -1041 0
-1035 -1040 1041 0
297 -1042 0
148 -1042 0
-297 -148 1042 0
-1041 1039 0
-1042 1039 0
1041 1042 -1039 0
149 298 -1043 0
-149 298 1043 0
149 -298 1043 0
-149 -298 -1043 0
1043 1039 -447 0
-1043 1039 447 0
1043 -1039 447 0
-1043 -1039 -447 0
1039 -1044 0
1043 -1044 0
-1039 -1043 1044 0
298 -1045 0
149 -1045 0
-298 -149 1045 0
-1044 448 0
-1045 448 0
1044 1045 -448 0
